c Random Network
p min 10 20
n 1 1
n 10 -1
c Transformed from a max-flow problem.
a 	 1	5	0	23	0
a 	 1	8	0	47	0
a 	 2	5	0	36	0
a 	 2	4	0	21	0
a 	 1	7	0	23	0
a 	 4	8	0	6	0
a 	 3	6	0	27	0
a 	 1	6	0	15	0
a 	 5	8	0	3	0
a 	 6	3	0	41	0
a 	 6	10	0	2	0
a 	 7	2	0	36	0
a 	 8	3	0	22	0
a 	 6	5	0	5	0
a 	 8	4	0	32	0
a 	 4	3	0	25	0
a 	 6	4	0	45	0
a 	 4	1	0	24	0
a 	 3	8	0	8	0
a 	 4	6	0	38	0